c ren 1 -> 1
c ren 2 -> 2
c ren 3 -> 3
c ren 4 -> 4
c ren 5 -> 5
c ren 6 -> 6
c ren 7 -> 7
c ren 8 -> 8
c ren 9 -> 9
c ren 10 -> 10
c ren 11 -> 11
c ren 12 -> 12
c ren 13 -> 13
c ren 14 -> 14
c ren 15 -> 15
c ren 16 -> 16
c ren 17 -> 17
c ren 18 -> 18
c ren 19 -> 19
c ren 20 -> 20
c ren 21 -> 21
c ren 22 -> 22
c ren 23 -> 23
c ren 24 -> 24
c ren 25 -> 25
c ren 26 -> 26
c ren 27 -> 27
c ren 28 -> 28
c ren 29 -> 29
c ren 30 -> 30
c ren 31 -> 31
c ren 32 -> 32
c ren 33 -> 33
c ren 34 -> 34
c ren 35 -> 35
c ren 36 -> 36
c ren 37 -> 37
c ren 38 -> 38
c ren 39 -> 39
c ren 40 -> 40
c ren 41 -> 41
c ren 42 -> 42
c ren 43 -> 43
c ren 44 -> 44
c ren 45 -> 45
c ren 46 -> 46
c ren 47 -> 47
c ren 48 -> 48
c ren 49 -> 49
c ren 50 -> 50
c ren 51 -> 51
c ren 52 -> 52
c ren 53 -> 53
c ren 54 -> 54
c ren 55 -> 55
c ren 56 -> 56
c ren 57 -> 57
c ren 58 -> 58
c ren 59 -> 59
c ren 60 -> 60
c ren 61 -> 61
c ren 62 -> 62
c ren 63 -> 63
c ren 64 -> 64
c ren 65 -> 65
c ren 66 -> 66
c ren 67 -> 67
c ren 68 -> 68
c ren 69 -> 69
c ren 70 -> 70
c ren 71 -> 71
c ren 72 -> 72
c ren 73 -> 73
c ren 74 -> 74
c ren 75 -> 75
c ren 76 -> 76
c ren 77 -> 77
c ren 78 -> 78
c ren 79 -> 79
c ren 80 -> 80
c ren 81 -> 81
c ren 82 -> 82
c ren 83 -> 83
c ren 84 -> 84
c ren 85 -> 85
c ren 86 -> 86
c ren 87 -> 87
c ren 88 -> 88
c ren 89 -> 89
c ren 90 -> 90
c ren 91 -> 91
c ren 92 -> 92
c ren 93 -> 93
c ren 94 -> 94
c ren 95 -> 95
c ren 96 -> 96
c ren 97 -> 97
c ren 98 -> 98
c ren 99 -> 99
c ren 100 -> 100
c ren 101 -> 101
c ren 102 -> 102
c ren 103 -> 103
c ren 105 -> 104
c ren 108 -> 105
c ren 111 -> 106
c ren 122 -> 107
c ren 124 -> 108
c ren 128 -> 109
c ren 136 -> 110
c ren 140 -> 111
c ren 144 -> 112
c ren 148 -> 113
c ren 152 -> 114
c ren 156 -> 115
c ren 160 -> 116
c ren 164 -> 117
c ren 170 -> 118
c ren 174 -> 119
c ren 178 -> 120
c ren 184 -> 121
c ren 188 -> 122
c ren 192 -> 123
c ren 196 -> 124
c ren 200 -> 125
c ren 204 -> 126
c ren 220 -> 127
c ren 222 -> 128
c ren 228 -> 129
c ren 232 -> 130
c ren 236 -> 131
c ren 242 -> 132
c ren 246 -> 133
c ren 250 -> 134
c ren 256 -> 135
c ren 260 -> 136
c ren 266 -> 137
c ren 270 -> 138
c ren 274 -> 139
c ren 280 -> 140
c ren 292 -> 141
c ren 294 -> 142
c ren 300 -> 143
c ren 303 -> 144
c ren 307 -> 145
c ren 310 -> 146
c ren 313 -> 147
c ren 316 -> 148
c ren 320 -> 149
c ren 326 -> 150
c ren 330 -> 151
c ren 334 -> 152
c ren 337 -> 153
c ren 340 -> 154
c ren 343 -> 155
c ren 346 -> 156
c ren 349 -> 157
c ren 353 -> 158
c ren 359 -> 159
c ren 363 -> 160
c ren 366 -> 161
c ren 379 -> 162
c ren 381 -> 163
c ren 384 -> 164
c ren 387 -> 165
c ren 390 -> 166
c ren 394 -> 167
c ren 399 -> 168
c ren 403 -> 169
c ren 407 -> 170
c ren 413 -> 171
c ren 417 -> 172
c ren 421 -> 173
c ren 424 -> 174
c ren 430 -> 175
c ren 433 -> 176
c ren 436 -> 177
c ren 439 -> 178
c ren 445 -> 179
c ren 449 -> 180
c ren 455 -> 181
c ren 459 -> 182
c ren 462 -> 183
c ren 471 -> 184
c ren 472 -> 185
c ren 478 -> 186
c ren 482 -> 187
c ren 488 -> 188
p cnf 188 778
a 1 2 3 4 5 6 7 8 9 10 11 12 13 14 15 16 17 18 19 20 21 22 23 24 25 26 27 28 29 30 31 32 33 34 35 36 37 38 39 40 41 42 43 44 45 46 47 48 49 50 51 52 53 54 55 56 57 58 59 60 61 62 63 64 65 66 67 68 69 70 71 72 73 74 75 76 77 78 79 80 81 82 83 84 85 86 87 88 89 90 91 92 93 94 95 96 97 98 0
d 99 53 0
d 100 56 0
d 101 1 6 0
d 102 74 85 0
d 103 2 6 0
e 104 105 106 107 108 109 110 111 112 113 114 115 116 117 118 119 120 121 122 123 124 125 126 127 128 129 130 131 132 133 134 135 136 137 138 139 140 141 142 143 144 145 146 147 148 149 150 151 152 153 154 155 156 157 158 159 160 161 162 163 164 165 166 167 168 169 170 171 172 173 174 175 176 177 178 179 180 181 182 183 184 185 186 187 188 0
1 -10 -104 0
-1 -6 -10 104 0
-1 -6 10 -104 0
6 10 104 0
6 -10 -104 0
1 10 104 0
2 -11 -105 0
-2 -5 -11 105 0
5 55 144 0
-2 -5 11 -105 0
2 55 144 0
2 -55 -144 0
-2 -5 -55 144 0
105 107 0
-1 -2 -6 -7 -9 -13 -16 -104 -105 -106 -107 0
-10 11 106 0
10 -11 106 0
-10 -11 -106 0
10 11 -106 0
1 -6 -9 13 -16 -104 -105 -106 -107 0
2 -7 -9 -13 16 -104 -105 -106 -107 0
1 6 9 13 16 -104 -105 106 -107 0
-1 6 -7 -9 -13 16 -104 -105 -106 -107 0
1 6 -9 13 16 -104 -105 -106 -107 0
2 7 9 13 16 -104 -105 106 -107 0
1 -58 -147 0
-1 -7 -58 147 0
1 -2 -6 9 13 -16 -104 -105 106 -107 0
-1 -7 13 107 0
2 7 -9 13 16 -104 -105 -106 -107 0
1 58 147 0
-1 6 -7 9 -13 16 -104 -105 106 -107 0
6 7 -9 13 16 -104 -105 -106 -107 0
1 -13 107 0
5 -55 -144 0
2 -16 107 0
7 58 147 0
7 -13 107 0
6 -16 107 0
-2 -6 16 107 0
104 107 0
7 -58 -147 0
1 2 9 13 16 -104 106 -107 0
-2 -6 7 9 13 -16 -104 -105 106 -107 0
6 7 9 13 16 -104 -105 106 -107 0
3 -17 -108 0
-3 -5 -17 108 0
5 61 148 0
-3 -5 17 -108 0
3 61 148 0
3 -61 -148 0
-3 -5 -61 148 0
108 127 0
-26 -27 35 -36 -38 107 -108 -109 -110 -111 -112 -113 -114 -115 -116 -117 -118 -119 -120 -121 -122 -123 -124 -125 -126 -127 0
-9 106 107 0
-15 16 17 -109 0
15 -16 -17 109 0
15 16 -17 -109 0
-15 -16 17 109 0
15 -16 17 -109 0
-15 -16 -17 -109 0
15 16 17 109 0
-15 16 -17 109 0
109 127 0
-25 -28 35 -36 -37 -38 107 -108 -109 -110 -111 -112 -113 -114 -115 -116 -117 -118 -119 -120 -121 -122 -123 -124 -125 -126 -127 0
11 18 110 0
-10 -11 -18 110 0
11 -18 -110 0
10 18 110 0
-10 -11 18 -110 0
10 -18 -110 0
110 127 0
-14 15 18 -111 0
14 -15 -18 111 0
14 15 -18 -111 0
-14 -15 18 111 0
14 -15 18 -111 0
-14 -15 -18 -111 0
14 15 18 111 0
-14 15 -18 111 0
111 127 0
-12 13 14 -112 0
12 -13 -14 112 0
12 13 -14 -112 0
-12 -13 14 112 0
12 -13 14 -112 0
-12 -13 -14 -112 0
12 13 14 112 0
-12 13 -14 112 0
112 127 0
26 28 -35 -36 -37 38 107 -108 -109 -110 -111 -112 -113 -114 -115 -116 -117 -118 -119 -120 -121 -122 -123 -124 -125 -126 -127 0
1 -20 -113 0
-1 -8 -20 113 0
8 64 154 0
-1 -8 20 -113 0
1 64 154 0
1 -64 -154 0
-1 -8 -64 154 0
113 127 0
27 -35 -36 -37 38 107 -108 -109 -110 -111 -112 -113 -114 -115 -116 -117 -118 -119 -120 -121 -122 -123 -124 -125 -126 -127 0
2 -23 -114 0
-2 -7 -23 114 0
7 67 155 0
-2 -7 23 -114 0
2 67 155 0
2 -67 -155 0
-2 -7 -67 155 0
114 127 0
-26 -27 37 -115 -116 -117 -119 -121 -124 -125 -126 0
3 -26 -115 0
-3 -6 -26 115 0
6 70 156 0
-3 -6 26 -115 0
3 70 156 0
3 -70 -156 0
-3 -6 -70 156 0
115 127 0
-25 -28 -35 36 37 -38 107 -108 -109 -110 -111 -112 -113 -114 -115 -116 -117 -118 -119 -120 -121 -122 -123 -124 -125 -126 -127 0
4 -27 -116 0
-4 -5 -27 116 0
5 71 157 0
-4 -5 27 -116 0
4 71 157 0
4 -71 -157 0
-4 -5 -71 157 0
116 127 0
-25 26 27 -117 0
25 -26 -27 117 0
25 26 -27 -117 0
-25 -26 27 117 0
25 -26 27 -117 0
-25 -26 -27 -117 0
25 26 27 117 0
-25 26 -27 117 0
117 127 0
25 27 35 36 37 38 107 -108 -109 -110 -111 -112 -113 -114 -115 -116 -117 -118 -119 -120 -121 -122 -123 -124 -125 -126 -127 0
15 16 -28 -118 0
-15 -18 -28 118 0
17 18 28 118 0
15 17 -28 -118 0
-16 -17 -28 118 0
17 18 -28 -118 0
16 18 28 118 0
-16 -17 28 -118 0
16 18 -28 -118 0
-15 -18 28 -118 0
15 17 28 118 0
118 127 0
26 28 35 36 37 38 107 -108 -109 -110 -111 -112 -113 -114 -115 -116 -117 -118 -119 -120 -121 -122 -123 -124 -125 -126 -127 0
-24 25 28 -119 0
24 -25 -28 119 0
24 25 -28 -119 0
-24 -25 28 119 0
24 -25 28 -119 0
-24 -25 -28 -119 0
24 25 28 119 0
-24 25 -28 119 0
119 127 0
27 28 35 36 37 38 107 -108 -109 -110 -111 -112 -113 -114 -115 -116 -117 -118 -119 -120 -121 -122 -123 -124 -125 -126 -127 0
-22 23 24 -120 0
22 -23 -24 120 0
22 23 -24 -120 0
-22 -23 24 120 0
22 -23 24 -120 0
-22 -23 -24 -120 0
22 23 24 120 0
-22 23 -24 120 0
120 127 0
-107 127 0
13 -29 -121 0
14 29 121 0
-13 -14 -29 121 0
14 -29 -121 0
13 29 121 0
-13 -14 29 -121 0
121 127 0
5 -61 -148 0
-21 22 29 -122 0
21 -22 -29 122 0
21 22 -29 -122 0
-21 -22 29 122 0
21 -22 29 -122 0
-21 -22 -29 -122 0
21 22 29 122 0
-21 22 -29 122 0
122 127 0
9 -106 107 0
-19 20 21 -123 0
19 -20 -21 123 0
19 20 -21 -123 0
-19 -20 21 123 0
19 -20 21 -123 0
-19 -20 -21 -123 0
19 20 21 123 0
-19 20 -21 123 0
123 127 0
2 -31 -124 0
-2 -8 -31 124 0
8 76 164 0
-2 -8 31 -124 0
2 76 164 0
2 -76 -164 0
-2 -8 -76 164 0
124 127 0
3 -34 -125 0
-3 -7 -34 125 0
7 79 165 0
-3 -7 34 -125 0
3 79 165 0
3 -79 -165 0
-3 -7 -79 165 0
125 127 0
4 -37 -126 0
-4 -6 -37 126 0
6 82 166 0
-4 -6 37 -126 0
4 82 166 0
4 -82 -166 0
-4 -6 -82 166 0
126 127 0
8 -64 -154 0
5 -71 -157 0
7 -67 -155 0
6 -70 -156 0
8 -76 -164 0
26 28 -38 127 0
7 -79 -165 0
-25 -28 38 127 0
-36 37 127 0
25 26 -38 127 0
25 27 -38 127 0
27 28 -38 127 0
36 -37 127 0
-35 36 38 127 0
6 -82 -166 0
35 36 -38 127 0
-26 -27 38 127 0
35 -36 38 127 0
-35 -36 -38 127 0
-33 34 35 -128 0
33 -34 -35 128 0
33 34 -35 -128 0
-33 -34 35 128 0
33 -34 35 -128 0
-33 -34 -35 -128 0
33 34 35 128 0
-33 34 -35 128 0
128 141 0
-8 -45 -46 -50 -51 127 -128 -129 -130 -131 -132 -133 -134 -135 -136 -137 -138 -139 -140 -141 0
22 23 -39 -129 0
-22 -29 -39 129 0
24 29 39 129 0
22 24 -39 -129 0
-23 -24 -39 129 0
24 29 -39 -129 0
22 23 39 129 0
23 29 39 129 0
-23 -24 39 -129 0
23 29 -39 -129 0
-22 -29 39 -129 0
22 24 39 129 0
129 141 0
-8 -44 -47 -50 -51 127 -128 -129 -130 -131 -132 -133 -134 -135 -136 -137 -138 -139 -140 -141 0
-32 33 39 -130 0
32 -33 -39 130 0
32 33 -39 -130 0
-32 -33 39 130 0
32 -33 39 -130 0
-32 -33 -39 -130 0
32 33 39 130 0
-32 33 -39 130 0
130 141 0
-30 31 32 -131 0
30 -31 -32 131 0
30 31 -32 -131 0
-30 -31 32 131 0
30 -31 32 -131 0
-30 -31 -32 -131 0
30 31 32 131 0
-30 31 -32 131 0
131 141 0
-4 -8 44 46 -50 51 127 -128 -129 -130 -131 -132 -133 -134 -135 -136 -137 -138 -139 -140 -141 0
20 -40 -132 0
21 40 132 0
-20 -21 -40 132 0
21 -40 -132 0
20 40 132 0
-20 -21 40 -132 0
132 141 0
-4 -8 45 -50 51 127 -128 -129 -130 -131 -132 -133 -134 -135 -136 -137 -138 -139 -140 -141 0
3 -42 -133 0
-3 -8 -42 133 0
8 88 177 0
-3 -8 42 -133 0
3 88 177 0
3 -88 -177 0
-3 -8 -88 177 0
133 141 0
-4 -8 46 47 -50 51 127 -128 -129 -130 -131 -132 -133 -134 -135 -136 -137 -138 -139 -140 -141 0
4 -45 -134 0
-4 -7 -45 134 0
7 -91 -178 0
-4 -7 45 -134 0
4 -91 -178 0
7 45 134 0
-4 -7 -91 178 0
134 141 0
8 46 47 50 51 127 -128 -129 -130 -131 -132 -133 -134 -135 -136 -137 -138 -139 -140 -141 0
-36 -38 -46 135 0
38 46 135 0
36 -46 -135 0
38 -46 -135 0
-36 -38 46 -135 0
36 46 135 0
135 141 0
4 -44 -47 -51 127 -129 -132 -133 -134 -135 -136 0
-44 45 46 -136 0
44 -45 -46 136 0
44 45 -46 -136 0
-44 -45 46 136 0
44 -45 46 -136 0
-44 -45 -46 -136 0
44 45 46 136 0
-44 45 -46 136 0
136 141 0
4 44 50 51 127 -128 -129 -130 -131 -132 -133 -134 -136 -137 -138 -139 -140 -141 0
33 34 -47 -137 0
-33 -39 -47 137 0
35 39 47 137 0
33 35 -47 -137 0
-34 -35 -47 137 0
35 39 -47 -137 0
33 34 47 137 0
34 39 47 137 0
-34 -35 47 -137 0
34 39 -47 -137 0
-33 -39 47 -137 0
137 141 0
-43 44 47 -138 0
43 -44 -47 138 0
43 44 -47 -138 0
-43 -44 47 138 0
43 -44 47 -138 0
-43 -44 -47 -138 0
43 44 47 138 0
-43 44 -47 138 0
138 141 0
4 47 50 51 127 -128 -129 -130 -131 -132 -133 -134 -135 -136 -137 -138 -139 -140 -141 0
-41 42 43 -139 0
41 -42 -43 139 0
41 42 -43 -139 0
-41 -42 43 139 0
41 -42 43 -139 0
-41 -42 -43 -139 0
41 42 43 139 0
-41 42 -43 139 0
139 141 0
30 31 -48 -140 0
-30 -40 -48 140 0
32 40 48 140 0
30 32 -48 -140 0
-31 -32 -48 140 0
32 40 -48 -140 0
31 40 48 140 0
-31 -32 48 -140 0
31 40 -48 -140 0
-30 -40 48 -140 0
30 32 48 140 0
140 141 0
4 91 178 0
-4 -8 -96 185 0
8 45 47 50 51 127 -128 -129 -130 -131 -132 -133 -134 -135 -136 -137 -138 -139 -140 -141 0
8 44 45 50 51 127 -128 -129 -130 -131 -132 -133 -134 -135 -136 -137 -138 -139 -140 -141 0
4 -50 141 0
-127 141 0
8 44 46 50 51 127 -128 -129 -130 -131 -132 -133 -134 -135 -136 -137 -138 -139 -140 -141 0
44 45 -51 141 0
44 46 -51 141 0
-4 -8 50 141 0
46 47 -51 141 0
8 -88 -177 0
4 96 185 0
-44 -47 51 141 0
-45 -46 51 141 0
8 -45 -46 50 -51 127 -128 -129 -130 -131 -132 -133 -134 -135 -136 -137 -138 -139 -140 -141 0
8 96 185 0
45 47 -51 141 0
-49 50 51 -142 0
49 -50 -51 142 0
49 50 -51 -142 0
-49 -50 51 142 0
49 -50 51 -142 0
-49 -50 -51 -142 0
49 50 51 142 0
-49 50 -51 142 0
142 162 0
-58 -59 65 -66 -73 141 -142 -143 -144 -145 -146 -147 -148 -149 -150 -151 -152 -153 -154 -155 -156 -157 -158 -159 -160 -161 -162 0
41 42 -52 -143 0
-41 -48 -52 143 0
43 48 52 143 0
41 43 -52 -143 0
-42 -43 -52 143 0
43 48 -52 -143 0
41 42 52 143 0
42 48 52 143 0
-42 -43 52 -143 0
42 48 -52 -143 0
-41 -48 52 -143 0
41 43 52 143 0
143 162 0
-2 -5 55 -144 0
5 11 105 0
5 -11 -105 0
2 11 105 0
144 162 0
-54 55 101 -145 0
54 -55 -101 145 0
54 -55 101 -145 0
-54 55 -101 145 0
54 55 -101 -145 0
-54 -55 -101 -145 0
54 55 101 145 0
-54 -55 101 145 0
145 162 0
-53 -54 146 0
53 54 146 0
-53 54 -146 0
53 -54 -146 0
146 162 0
58 -65 -66 73 141 -142 -143 -144 -145 -146 -147 -148 -149 -150 -151 -152 -153 -154 -155 -156 -157 -158 -159 -160 -161 -162 0
-1 -7 58 -147 0
-1 -2 -6 -7 9 -13 -16 -104 -105 106 -107 0
-1 2 -7 9 -13 16 -104 -105 106 -107 0
-2 -6 7 -9 13 -16 -104 -105 -106 -107 0
147 162 0
59 -65 -66 73 141 -142 -143 -144 -145 -146 -147 -148 -149 -150 -151 -152 -153 -154 -155 -156 -157 -158 -159 -160 -161 -162 0
-3 -5 61 -148 0
5 17 108 0
5 -17 -108 0
3 17 108 0
148 162 0
-58 -59 -65 66 -73 141 -142 -143 -144 -145 -146 -147 -148 -149 -150 -151 -152 -153 -154 -155 -156 -157 -158 -159 -160 161 -162 0
-60 61 103 -149 0
60 -61 -103 149 0
60 -61 103 -149 0
-60 61 -103 149 0
60 61 -103 -149 0
-60 -61 -103 -149 0
60 61 103 149 0
-60 -61 103 149 0
149 162 0
55 -62 -150 0
62 101 150 0
-55 -62 -101 150 0
-62 101 -150 0
55 62 150 0
-55 62 -101 -150 0
150 162 0
-59 60 62 -151 0
59 -60 -62 151 0
59 60 -62 -151 0
-59 -60 62 151 0
59 -60 62 -151 0
-59 -60 -62 -151 0
59 60 62 151 0
-59 60 -62 151 0
151 162 0
-57 58 59 -152 0
57 -58 -59 152 0
57 58 -59 -152 0
-57 -58 59 152 0
57 -58 59 -152 0
-57 -58 -59 -152 0
57 58 59 152 0
-57 58 -59 152 0
152 162 0
58 65 66 73 141 -142 -143 -144 -145 -146 -147 -148 -149 -150 -151 -152 -153 -154 -155 -156 -157 -158 -159 -160 161 -162 0
-56 -57 153 0
56 57 153 0
-56 57 -153 0
56 -57 -153 0
153 162 0
59 65 66 73 141 -142 -143 -144 -145 -146 -147 -148 -149 -150 -151 -152 -153 -154 -155 -156 -157 -158 -159 -160 161 -162 0
-1 -8 64 -154 0
8 20 113 0
8 -20 -113 0
1 20 113 0
154 162 0
-141 162 0
-2 -7 67 -155 0
7 23 114 0
7 -23 -114 0
2 23 114 0
155 162 0
-3 -6 70 -156 0
6 26 115 0
6 -26 -115 0
3 26 115 0
156 162 0
8 -50 141 0
-4 -5 71 -157 0
5 27 116 0
5 -27 -116 0
4 27 116 0
157 162 0
-69 70 71 -158 0
69 -70 -71 158 0
69 70 -71 -158 0
-69 -70 71 158 0
69 -70 71 -158 0
-69 -70 -71 -158 0
69 70 71 158 0
-69 70 -71 158 0
158 162 0
60 61 -72 -159 0
-60 -62 -72 159 0
62 72 103 159 0
60 -72 103 -159 0
-61 -72 -103 159 0
62 -72 103 -159 0
61 62 72 159 0
-61 72 -103 -159 0
61 62 -72 -159 0
-60 -62 72 -159 0
60 72 103 159 0
159 162 0
-69 71 -72 -83 -168 0
69 -72 -83 168 0
68 69 -72 -160 0
-68 -69 72 160 0
68 -69 72 -160 0
69 -72 83 -168 0
68 -69 -72 160 0
-69 72 -83 168 0
160 162 0
-68 69 72 -160 0
-67 68 161 0
67 -68 161 0
-67 -68 -161 0
67 68 -161 0
69 71 72 83 168 0
58 -73 162 0
69 70 72 83 168 0
-66 161 162 0
59 -73 162 0
66 -161 162 0
-65 66 73 162 0
68 69 72 160 0
65 66 -73 162 0
-58 -59 73 162 0
69 71 72 -83 -168 0
65 -66 73 162 0
69 70 72 -83 -168 0
-65 -66 -73 162 0
-63 64 65 -163 0
63 -64 -65 163 0
63 64 -65 -163 0
-63 -64 65 163 0
63 -64 65 -163 0
-63 -64 -65 -163 0
63 64 65 163 0
-63 64 -65 163 0
163 184 0
-76 -77 -87 -94 162 -163 -164 -165 -166 -167 -168 -169 -170 -171 -172 -173 -174 -175 -176 -177 -178 -179 -180 -181 -182 -183 -184 0
-2 -8 76 -164 0
8 31 124 0
8 -31 -124 0
2 31 124 0
164 184 0
-75 -86 -87 -94 162 -163 -164 -165 -166 -167 -168 -169 -170 -171 -172 -173 -174 -175 -176 -177 -178 -179 -180 -181 -182 -183 -184 0
-3 -7 79 -165 0
7 34 125 0
7 -34 -125 0
3 34 125 0
165 184 0
75 76 -87 94 162 -163 -164 -165 -166 -167 -168 -169 -170 -171 -172 -173 -174 -175 -176 -177 -178 -179 -180 -181 -182 -183 -184 0
-4 -6 82 -166 0
6 37 126 0
6 -37 -126 0
4 37 126 0
166 184 0
75 77 -87 94 162 -163 -164 -165 -166 -167 -168 -169 -170 -171 -172 -173 -174 -175 -176 -177 -178 -179 -180 -181 -182 -183 -184 0
-81 82 -167 0
-81 -82 167 0
81 -82 -167 0
81 82 167 0
167 184 0
76 86 -87 94 162 -163 -164 -165 -166 -167 -168 -169 -170 -171 -172 -173 -174 -175 -176 -177 -178 -179 -180 -181 -182 -183 -184 0
-69 70 -72 83 168 0
-70 -71 -83 168 0
-68 69 -72 160 0
-69 70 -72 -83 -168 0
-70 -71 83 -168 0
-69 71 -72 83 168 0
-69 72 83 -168 0
-68 -69 -72 -160 0
168 184 0
77 86 -87 94 162 -163 -164 -165 -166 -167 -168 -169 -170 -171 -172 -173 -174 -175 -176 -177 -178 -179 -180 -181 -182 -183 -184 0
-80 81 83 -169 0
80 -81 -83 169 0
80 81 -83 -169 0
-80 -81 83 169 0
80 -81 83 -169 0
-80 -81 -83 -169 0
80 81 83 169 0
-80 81 -83 169 0
169 184 0
-76 -77 87 -94 162 -163 -164 -165 -166 -167 -168 -169 -170 -171 -172 -173 -174 -175 -176 -177 -178 -179 -180 -181 -182 183 -184 0
-78 79 80 -170 0
78 -79 -80 170 0
78 79 -80 -170 0
-78 -79 80 170 0
78 -79 80 -170 0
-78 -79 -80 -170 0
78 79 80 170 0
-78 79 -80 170 0
170 184 0
-75 -86 87 -94 162 -163 -164 -165 -166 -167 -168 -169 -170 -171 -172 -173 -174 -175 -176 -177 -178 -179 -180 -181 -182 183 -184 0
66 67 -84 -171 0
-66 -73 -84 171 0
68 73 84 171 0
66 68 -84 -171 0
-67 -68 -84 171 0
68 73 -84 -171 0
66 67 84 171 0
67 73 84 171 0
-67 -68 84 -171 0
67 73 -84 -171 0
-66 -73 84 -171 0
66 68 84 171 0
171 184 0
75 76 87 94 162 -163 -164 -165 -166 -167 -168 -169 -170 -171 -172 -173 -174 -175 -176 -177 -178 -179 -180 -181 -182 183 -184 0
-77 78 84 -172 0
77 -78 -84 172 0
77 78 -84 -172 0
-77 -78 84 172 0
77 -78 84 -172 0
-77 -78 -84 -172 0
77 78 84 172 0
-77 78 -84 172 0
172 184 0
75 77 87 94 162 -163 -164 -165 -166 -167 -168 -169 -170 -171 -172 -173 -174 -175 -176 -177 -178 -179 -180 -181 -182 183 -184 0
-75 76 77 -173 0
75 -76 -77 173 0
75 76 -77 -173 0
-75 -76 77 173 0
75 -76 77 -173 0
-75 -76 -77 -173 0
75 76 77 173 0
-75 76 -77 173 0
173 184 0
76 86 87 94 162 -163 -164 -165 -166 -167 -168 -169 -170 -171 -172 -173 -174 -175 -176 -177 -178 -179 -180 -181 -182 183 -184 0
-74 -75 174 0
74 75 174 0
-74 75 -174 0
74 -75 -174 0
174 184 0
77 86 87 94 162 -163 -164 -165 -166 -167 -168 -169 -170 -171 -172 -173 -174 -175 -176 -177 -178 -179 -180 -181 -182 183 -184 0
64 -86 -175 0
65 86 175 0
65 -86 -175 0
-64 -65 -86 175 0
64 86 175 0
-64 -65 86 -175 0
175 184 0
-162 184 0
-85 -86 176 0
85 86 176 0
-85 86 -176 0
85 -86 -176 0
176 184 0
-3 -8 88 -177 0
8 42 133 0
8 -42 -133 0
3 42 133 0
177 184 0
-4 -7 91 -178 0
7 -45 -134 0
7 91 178 0
4 45 134 0
178 184 0
81 -92 -179 0
-81 -83 -92 179 0
83 92 179 0
83 -92 -179 0
81 82 92 179 0
-81 -83 92 -179 0
179 184 0
-90 91 92 -180 0
90 -91 -92 180 0
90 91 -92 -180 0
-90 -91 92 180 0
90 -91 92 -180 0
-90 -91 -92 -180 0
90 91 92 180 0
-90 91 -92 180 0
180 184 0
78 79 -93 -181 0
-78 -84 -93 181 0
80 84 93 181 0
78 80 -93 -181 0
-79 -80 -93 181 0
80 84 -93 -181 0
78 79 93 181 0
79 84 93 181 0
-79 -80 93 -181 0
79 84 -93 -181 0
-78 -84 93 -181 0
181 184 0
-89 90 93 -182 0
89 -90 -93 182 0
89 90 -93 -182 0
-89 -90 93 182 0
89 -90 93 -182 0
-89 -90 -93 -182 0
89 90 93 182 0
-89 90 -93 182 0
182 184 0
-88 89 183 0
88 -89 183 0
-88 -89 -183 0
88 89 -183 0
8 -44 -47 50 -51 127 -128 -129 -130 -131 -132 -133 -134 -135 -136 -137 -138 -139 -140 -141 0
-49 -52 97 98 184 -185 -186 -187 -188 0
-90 -93 -97 186 0
92 93 97 186 0
-91 -92 -97 186 0
90 91 97 186 0
91 93 97 186 0
90 92 97 186 0
50 52 -96 -97 184 -185 -186 -187 -188 0
95 -96 -97 187 0
-95 -96 97 187 0
95 96 97 187 0
-95 96 -97 187 0
51 52 -96 -97 184 -185 -186 -187 -188 0
-87 -94 -98 188 0
89 94 98 188 0
-88 -89 -98 188 0
87 88 98 188 0
88 94 98 188 0
49 50 -96 -97 184 -185 -186 -187 -188 0
9 -99 184 -185 -186 -187 -188 0
-9 99 184 -185 -186 -187 -188 0
12 -100 184 -185 -186 -187 -188 0
-12 100 184 -185 -186 -187 -188 0
19 -63 184 -185 -186 -187 -188 0
-19 63 184 -185 -186 -187 -188 0
41 48 87 -94 184 -185 -186 -187 -188 0
-30 40 102 184 -185 -186 -187 -188 0
30 40 -102 184 -185 -186 -187 -188 0
-41 48 -87 -94 184 -185 -186 -187 -188 0
-41 48 87 94 184 -185 -186 -187 -188 0
41 -48 -87 -94 184 -185 -186 -187 -188 0
30 -40 102 184 -185 -186 -187 -188 0
-30 -40 -102 184 -185 -186 -187 -188 0
49 52 95 -98 184 -185 -186 -187 -188 0
-41 -48 -87 94 184 -185 -186 -187 -188 0
41 -48 87 94 184 -185 -186 -187 -188 0
-49 52 -95 -98 184 -185 -186 -187 -188 0
-49 52 95 98 184 -185 -186 -187 -188 0
49 -52 -95 -98 184 -185 -186 -187 -188 0
41 48 -87 94 184 -185 -186 -187 -188 0
-41 -48 87 -94 184 -185 -186 -187 -188 0
-49 -52 96 98 184 -185 -186 -187 -188 0
-50 -51 95 96 184 -185 -186 -187 -188 0
-49 -52 95 -98 184 -185 -186 -187 -188 0
49 -52 95 98 184 -185 -186 -187 -188 0
50 52 -95 -98 184 -185 -186 -187 -188 0
49 51 -96 -97 184 -185 -186 -187 -188 0
-49 -52 -95 98 184 -185 -186 -187 -188 0
49 51 -95 -98 184 -185 -186 -187 -188 0
-50 -51 96 98 184 -185 -186 -187 -188 0
-49 -52 95 96 184 -185 -186 -187 -188 0
-50 -51 97 98 184 -185 -186 -187 -188 0
49 50 -95 -98 184 -185 -186 -187 -188 0
49 52 -95 98 184 -185 -186 -187 -188 0
51 52 -95 -98 184 -185 -186 -187 -188 0
